(set-logic QF_UF)
(declare-fun A0 () Bool)
(declare-fun A1 () Bool)
(declare-fun A2 () Bool)
(declare-fun A4 () Bool)
(declare-fun A5 () Bool)
(declare-fun A6 () Bool)
(declare-fun A8 () Bool)
(declare-fun A9 () Bool)
(declare-fun A10 () Bool)
(declare-fun A11 () Bool)
(declare-fun A12 () Bool)
(declare-fun A13 () Bool)
(declare-fun A14 () Bool)
(declare-fun A15 () Bool)
(declare-fun A16 () Bool)
(declare-fun A17 () Bool)
(declare-fun A18 () Bool)
(declare-fun A19 () Bool)
(declare-fun A20 () Bool)
(declare-fun A21 () Bool)
(declare-fun A22 () Bool)
(declare-fun A23 () Bool)
(declare-fun A24 () Bool)
(assert (let ((.def_0 (not A19))) (let ((.def_1 (not A15))) (let ((.def_2 (and .def_1 .def_0))) (let ((.def_3 (not A17))) (let ((.def_4 (not A18))) (let ((.def_5 (or .def_4 .def_3))) (let ((.def_6 (not .def_5))) (let ((.def_7 (or .def_6 .def_2))) (let ((.def_8 (not .def_7))) (let ((.def_9 (not A22))) (let ((.def_10 (not A14))) (let ((.def_11 (and .def_10 .def_9))) (let ((.def_12 (not A13))) (let ((.def_13 (= .def_12 A1))) (let ((.def_14 (= .def_13 .def_11))) (let ((.def_15 (and .def_14 .def_8))) (let ((.def_16 (not .def_15))) (let ((.def_17 (and A12 A12))) (let ((.def_18 (not .def_17))) (let ((.def_19 (and A4 A1))) (let ((.def_20 (and .def_19 .def_18))) (let ((.def_21 (not .def_20))) (let ((.def_22 (not A0))) (let ((.def_23 (and .def_22 .def_22))) (let ((.def_24 (or A14 A22))) (let ((.def_25 (not .def_24))) (let ((.def_26 (or .def_25 .def_23))) (let ((.def_27 (not .def_26))) (let ((.def_28 (and .def_27 .def_21))) (let ((.def_29 (not .def_28))) (let ((.def_30 (or .def_29 .def_16))) (let ((.def_31 (not .def_30))) (let ((.def_32 (not A6))) (let ((.def_33 (and .def_32 A6))) (let ((.def_34 (not .def_33))) (let ((.def_35 (or .def_0 A8))) (let ((.def_36 (or .def_35 .def_34))) (let ((.def_37 (not A23))) (let ((.def_38 (= .def_37 A20))) (let ((.def_39 (not .def_38))) (let ((.def_40 (not A16))) (let ((.def_41 (and .def_40 A23))) (let ((.def_42 (or .def_41 .def_39))) (let ((.def_43 (not .def_42))) (let ((.def_44 (or .def_43 .def_36))) (let ((.def_45 (not .def_44))) (let ((.def_46 (and A5 A18))) (let ((.def_47 (not .def_46))) (let ((.def_48 (not A12))) (let ((.def_49 (and .def_48 .def_37))) (let ((.def_50 (= .def_49 .def_47))) (let ((.def_51 (not A2))) (let ((.def_52 (and .def_51 A21))) (let ((.def_53 (not A11))) (let ((.def_54 (not A1))) (let ((.def_55 (and .def_54 .def_53))) (let ((.def_56 (not .def_55))) (let ((.def_57 (or .def_56 .def_52))) (let ((.def_58 (and .def_57 .def_50))) (let ((.def_59 (not .def_58))) (let ((.def_60 (and .def_59 .def_45))) (let ((.def_61 (not .def_60))) (let ((.def_62 (and .def_61 .def_31))) (let ((.def_63 (not .def_62))) (let ((.def_64 (or A0 A20))) (let ((.def_65 (not .def_64))) (let ((.def_66 (and A6 .def_48))) (let ((.def_67 (not .def_66))) (let ((.def_68 (and .def_67 .def_65))) (let ((.def_69 (not .def_68))) (let ((.def_70 (and A13 .def_4))) (let ((.def_71 (not .def_70))) (let ((.def_72 (not A4))) (let ((.def_73 (and A19 .def_72))) (let ((.def_74 (not .def_73))) (let ((.def_75 (= .def_74 .def_71))) (let ((.def_76 (not .def_75))) (let ((.def_77 (= .def_76 .def_69))) (let ((.def_78 (or A8 A10))) (let ((.def_79 (not .def_78))) (let ((.def_80 (and A11 A5))) (let ((.def_81 (not .def_80))) (let ((.def_82 (= .def_81 .def_79))) (let ((.def_83 (not .def_82))) (let ((.def_84 (and .def_12 A8))) (let ((.def_85 (not .def_84))) (let ((.def_86 (not A24))) (let ((.def_87 (and A12 .def_86))) (let ((.def_88 (and .def_87 .def_85))) (let ((.def_89 (and .def_88 .def_83))) (let ((.def_90 (or .def_89 .def_77))) (let ((.def_91 (or A13 A20))) (let ((.def_92 (and A23 .def_12))) (let ((.def_93 (not .def_92))) (let ((.def_94 (and .def_93 .def_91))) (let ((.def_95 (and A15 A20))) (let ((.def_96 (not .def_95))) (let ((.def_97 (and .def_12 A16))) (let ((.def_98 (or .def_97 .def_96))) (let ((.def_99 (not .def_98))) (let ((.def_100 (or .def_99 .def_94))) (let ((.def_101 (not .def_100))) (let ((.def_102 (not A5))) (let ((.def_103 (and A19 .def_102))) (let ((.def_104 (or .def_53 A23))) (let ((.def_105 (or .def_104 .def_103))) (let ((.def_106 (and A9 A5))) (let ((.def_107 (not .def_106))) (let ((.def_108 (not A8))) (let ((.def_109 (= A21 .def_108))) (let ((.def_110 (= .def_109 .def_107))) (let ((.def_111 (not .def_110))) (let ((.def_112 (and .def_111 .def_105))) (let ((.def_113 (not .def_112))) (let ((.def_114 (and .def_113 .def_101))) (let ((.def_115 (not .def_114))) (let ((.def_116 (and .def_115 .def_90))) (let ((.def_117 (or .def_116 .def_63))) .def_117)))))))))))))))))))))))))))))))))))))))))))))))))))))))))))))))))))))))))))))))))))))))))))))))))))))))))))))))))))))))
(check-sat)
